
Value of objective function: 134.00000000

Actual values of the variables:
t1                              1
t2                              1
t3                              1
t4                              1
t5                              1
t6                              1
t7                              0
t8                              1
t9                              1
t10                             0
t11                             0
t12                             1
t13                             1
t14                             1
t15                             1
t16                             1
t17                             1
t18                             1
t19                             0
t20                             0
t21                             1
t22                             0
t23                             0
t24                             1
t25                             1
t26                             1
t27                             1
t28                             1
t29                             1
t30                             1
t31                             0
t32                             1
t33                             0
t34                             1
t35                             1
t36                             0
t37                             0
t38                             0
t39                             1
t40                             0
t41                             1
t42                             1
t43                             0
t44                             1
t45                             1
t46                             0
t47                             0
t48                             1
t49                             0
t50                             1
t51                             0
t52                             0
t53                             1
t54                             1
t55                             1
t56                             0
t57                             0
t58                             1
t59                             1
t60                             1
t61                             1
t62                             1
t63                             1
t64                             1
t65                             1
t66                             0
t67                             0
t68                             0
t69                             1
t70                             1
t71                             1
t72                             1
t73                             0
t74                             1
t75                             0
t76                             1
t77                             1
t78                             1
t79                             1
t80                             1
t81                             1
t82                             0
t83                             1
t84                             1
t85                             1
t86                             0
t87                             1
t88                             1
t89                             0
t90                             1
t91                             1
t92                             1
t93                             1
t94                             1
t95                             1
t96                             1
t97                             1
t98                             0
t99                             1
t100                            1
t101                            0
t102                            1
t103                            1
t104                            0
t105                            1
t106                            1
t107                            0
t108                            1
t109                            1
t110                            1
t111                            0
t112                            1
t113                            1
t114                            1
t115                            1
t116                            1
t117                            1
t118                            1
t119                            0
t120                            1
t121                            0
t122                            0
t123                            1
t124                            1
t125                            1
t126                            1
t127                            0
t128                            1
t129                            0
t130                            0
t131                            0
t132                            1
t133                            1
t134                            0
t135                            0
t136                            1
t137                            0
t138                            0
t139                            1
t140                            1
t141                            1
t142                            1
t143                            0
t144                            1
t145                            1
t146                            0
t147                            1
t148                            1
t149                            0
t150                            0
t151                            0
t152                            1
t153                            1
t154                            1
t155                            1
t156                            0
t157                            1
t158                            1
t159                            1
t160                            0
t161                            1
t162                            0
t163                            1
t164                            0
t165                            1
t166                            0
t167                            0
t168                            1
t169                            0
t170                            1
t171                            1
t172                            0
t173                            1
t174                            1
t175                            1
t176                            0
t177                            1
t178                            0
t179                            1
t180                            1
t181                            1
t182                            1
t183                            1
t184                            0
t185                            0
t186                            0
t187                            1
t188                            1
t189                            0
t190                            1
t191                            0
t192                            1
t193                            1
t194                            0
t195                            1
t196                            0
t197                            0
t198                            1
t199                            1
t200                            0
t201                            1
t202                            0
t203                            1
t204                            0
t205                            1
t206                            0
t207                            0
t208                            0
